n_machines = 3;
n_resources = 6;
n_jobs = 30;
horizon = 15039;
LB = 5013;
n_jobs_per_resource = [5, 5, 5, 5, 5, 5];
duration = [301, 41, 858, 366, 477, 275, 413, 155, 951, 102, 668, 47, 617, 998, 101, 499, 621, 743, 847, 855, 323, 168, 760, 917, 484, 390, 112, 764, 721, 465]